p cnf 25 20
-32 -37 0
-47 -54 0
-38 -44 -63 0
-37 -44 0
-2 -34 0
-6 -40 0
-3 -38 0
-2 -32 -38 0
-2 -38 -44 0
-39 -46 0
-6 -39 -45 0
-6 -52 0
-38 -64 0
-56 -60 0
-44 -47 -55 0
-38 -48 0
-38 -47 -53 0
-5 -38 -75 0
-31 -38 -56 0
-38 -44 -47 0
